50
126
129
125
125
119
128
128
124
128
129
121
117
117
125
123
127
127
127
116
118
122
129
114
115
129
120
119
116
115
126
118
116
126
116
121
129
114
116
124
115
122
117
129
126
121
121
117
116
127
129
